
n_res = 6;
rcap = [55, 62, 61, 54, 1434, 1607];
rtype = [1, 1, 1, 1, 2, 2];
n_tasks = 100;
modes =  [{1, 2, 3, 4, 5, 6}, {7, 8, 9, 10, 11, 12}, {13, 14, 15, 16, 17, 18}, {19, 20, 21, 22, 23, 24}, {25, 26, 27, 28, 29, 30}, {31, 32, 33, 34, 35, 36}, {37, 38, 39, 40, 41, 42}, {43, 44, 45, 46, 47, 48}, {49, 50, 51, 52, 53, 54}, {55, 56, 57, 58, 59, 60}, {61, 62, 63, 64, 65, 66}, {67, 68, 69, 70, 71, 72}, {73, 74, 75, 76, 77, 78}, {79, 80, 81, 82, 83, 84}, {85, 86, 87, 88, 89, 90}, {91, 92, 93, 94, 95, 96}, {97, 98, 99, 100, 101, 102}, {103, 104, 105, 106, 107, 108}, {109, 110, 111, 112, 113, 114}, {115, 116, 117, 118, 119, 120}, {121, 122, 123, 124, 125, 126}, {127, 128, 129, 130, 131, 132}, {133, 134, 135, 136, 137, 138}, {139, 140, 141, 142, 143, 144}, {145, 146, 147, 148, 149, 150}, {151, 152, 153, 154, 155, 156}, {157, 158, 159, 160, 161, 162}, {163, 164, 165, 166, 167, 168}, {169, 170, 171, 172, 173, 174}, {175, 176, 177, 178, 179, 180}, {181, 182, 183, 184, 185, 186}, {187, 188, 189, 190, 191, 192}, {193, 194, 195, 196, 197, 198}, {199, 200, 201, 202, 203, 204}, {205, 206, 207, 208, 209, 210}, {211, 212, 213, 214, 215, 216}, {217, 218, 219, 220, 221, 222}, {223, 224, 225, 226, 227, 228}, {229, 230, 231, 232, 233, 234}, {235, 236, 237, 238, 239, 240}, {241, 242, 243, 244, 245, 246}, {247, 248, 249, 250, 251, 252}, {253, 254, 255, 256, 257, 258}, {259, 260, 261, 262, 263, 264}, {265, 266, 267, 268, 269, 270}, {271, 272, 273, 274, 275, 276}, {277, 278, 279, 280, 281, 282}, {283, 284, 285, 286, 287, 288}, {289, 290, 291, 292, 293, 294}, {295, 296, 297, 298, 299, 300}, {301, 302, 303, 304, 305, 306}, {307, 308, 309, 310, 311, 312}, {313, 314, 315, 316, 317, 318}, {319, 320, 321, 322, 323, 324}, {325, 326, 327, 328, 329, 330}, {331, 332, 333, 334, 335, 336}, {337, 338, 339, 340, 341, 342}, {343, 344, 345, 346, 347, 348}, {349, 350, 351, 352, 353, 354}, {355, 356, 357, 358, 359, 360}, {361, 362, 363, 364, 365, 366}, {367, 368, 369, 370, 371, 372}, {373, 374, 375, 376, 377, 378}, {379, 380, 381, 382, 383, 384}, {385, 386, 387, 388, 389, 390}, {391, 392, 393, 394, 395, 396}, {397, 398, 399, 400, 401, 402}, {403, 404, 405, 406, 407, 408}, {409, 410, 411, 412, 413, 414}, {415, 416, 417, 418, 419, 420}, {421, 422, 423, 424, 425, 426}, {427, 428, 429, 430, 431, 432}, {433, 434, 435, 436, 437, 438}, {439, 440, 441, 442, 443, 444}, {445, 446, 447, 448, 449, 450}, {451, 452, 453, 454, 455, 456}, {457, 458, 459, 460, 461, 462}, {463, 464, 465, 466, 467, 468}, {469, 470, 471, 472, 473, 474}, {475, 476, 477, 478, 479, 480}, {481, 482, 483, 484, 485, 486}, {487, 488, 489, 490, 491, 492}, {493, 494, 495, 496, 497, 498}, {499, 500, 501, 502, 503, 504}, {505, 506, 507, 508, 509, 510}, {511, 512, 513, 514, 515, 516}, {517, 518, 519, 520, 521, 522}, {523, 524, 525, 526, 527, 528}, {529, 530, 531, 532, 533, 534}, {535, 536, 537, 538, 539, 540}, {541, 542, 543, 544, 545, 546}, {547, 548, 549, 550, 551, 552}, {553, 554, 555, 556, 557, 558}, {559, 560, 561, 562, 563, 564}, {565, 566, 567, 568, 569, 570}, {571, 572, 573, 574, 575, 576}, {577, 578, 579, 580, 581, 582}, {583, 584, 585, 586, 587, 588}, {589, 590, 591, 592, 593, 594}, {595, 596, 597, 598, 599, 600}];
succ =  [{60, 44, 43, 41, 40, 38, 33, 31, 29, 28, 26, 13}, {52, 49, 46, 42, 35, 34, 31, 24, 12}, {65, 60, 58, 52, 49, 47, 43, 40, 35, 31, 30, 26, 24}, {64, 60, 58, 46, 41, 39, 36, 33, 31, 29, 24}, {60, 53, 52, 48, 43, 42, 40, 36, 26, 18}, {65, 60, 52, 49, 47, 46, 43, 42, 40, 39, 35, 26, 24}, {65, 64, 60, 58, 52, 46, 42, 41, 40, 38, 36, 31, 25}, {64, 60, 53, 52, 49, 47, 46, 41, 31, 29, 24}, {65, 61, 58, 53, 49, 45, 41, 39, 33, 31, 27}, {64, 58, 53, 51, 50, 49, 46, 40, 38, 25}, {64, 61, 60, 55, 54, 53, 52, 51, 50, 49, 48, 46, 45, 43, 42, 39}, {65, 64, 61, 60, 58, 53, 47, 38, 25}, {65, 61, 58, 53, 48, 45, 39, 36, 30}, {65, 64, 55, 53, 52, 51, 48, 46, 45, 44, 36}, {65, 64, 62, 61, 60, 58, 57, 55, 54, 52, 48, 45, 42, 39}, {65, 64, 60, 58, 54, 51, 50, 46, 45, 41, 39, 38}, {71, 67, 66, 65, 64, 61, 60, 59, 58, 57, 56, 54, 50, 49, 41}, {65, 64, 46, 39, 24}, {66, 65, 64, 61, 58, 57, 54, 52, 49, 45, 38}, {71, 66, 65, 60, 55, 54, 52, 47, 46, 45, 39}, {63, 60, 52, 51, 42, 31}, {100, 76, 67, 64, 55, 54, 53, 48, 46, 42}, {100, 66, 64, 60, 49, 47, 46, 45, 42}, {80, 71, 66, 61, 59, 55, 51, 50, 45, 44}, {62, 57, 55, 54, 48, 45, 39}, {100, 71, 66, 64, 63, 61, 59, 57, 54, 51, 45}, {100, 79, 71, 67, 64, 63, 60, 56, 55, 54, 50, 46}, {100, 79, 64, 63, 62, 55, 54, 48, 45}, {65, 63, 62, 61, 59, 57, 48, 45}, {100, 99, 80, 76, 74, 71, 67, 63, 62, 57, 55, 46}, {100, 99, 98, 76, 68, 67, 62, 59, 57, 54, 48}, {100, 98, 78, 67, 65, 62, 61, 57, 56, 48}, {100, 71, 68, 66, 52, 50, 47}, {99, 71, 69, 68, 66, 63, 61, 59, 58, 54}, {98, 80, 79, 76, 75, 74, 71, 67, 56, 53}, {79, 72, 68, 67, 54, 50, 49}, {99, 96, 80, 78, 76, 75, 74, 72, 71, 70, 67, 62, 61, 60}, {100, 97, 80, 75, 74, 71, 69, 59, 55}, {100, 98, 80, 79, 76, 74, 73, 67, 63, 59}, {98, 96, 78, 76, 75, 74, 69, 68, 67, 62, 61}, {100, 95, 93, 92, 79, 76, 75, 74, 55}, {98, 92, 88, 79, 74, 71, 69, 56}, {99, 98, 93, 88, 86, 79, 77, 76, 75, 68, 59}, {100, 99, 92, 91, 79, 74, 69, 68, 63}, {98, 88, 76, 74, 69, 67, 56}, {98, 97, 96, 90, 88, 86, 75, 73, 69, 59}, {98, 91, 90, 80, 74, 69, 63, 62}, {94, 92, 90, 88, 72, 71, 70, 69, 66}, {98, 95, 94, 93, 91, 90, 77, 75, 74, 73, 63}, {99, 96, 91, 90, 86, 75, 73, 70, 69, 62}, {98, 92, 88, 79, 75, 74, 70, 69, 68}, {98, 97, 88, 86, 76, 73, 59}, {97, 95, 91, 90, 63, 62}, {96, 94, 93, 91, 88, 85, 80, 78, 77, 74, 70}, {98, 96, 94, 89, 88, 87, 86, 78, 77, 72, 68}, {99, 96, 94, 93, 86, 77, 72, 70, 68}, {95, 94, 93, 92, 91, 90, 88, 86, 85, 84, 83, 82, 79, 77}, {98, 97, 93, 92, 91, 88, 86, 84, 83, 76, 73}, {94, 92, 78, 72, 70}, {94, 93, 92, 89, 87, 86, 84, 83, 81, 73}, {91, 90, 88, 87, 84, 81, 79, 73}, {94, 92, 89, 88, 87, 85, 83, 82, 77}, {96, 88, 86, 78, 70}, {97, 93, 88, 84, 82, 81, 74}, {95, 92, 90, 88, 84, 81, 74}, {87, 75, 74, 73}, {95, 93, 89, 84, 83, 82, 77}, {90, 84, 83, 81, 73}, {95, 93, 83, 77}, {89, 87, 84, 82}, {86, 85, 82, 81}, {91, 85, 83}, {85, 82}, {86, 83}, {82, 81}, {90, 81}, {81}, {81}, {97}, {92}, {}, {}, {}, {}, {}, {}, {}, {}, {}, {}, {}, {}, {}, {}, {}, {}, {}, {}, {}, {}];
n_opt = 600;
dur = [5, 7, 9, 16, 17, 30, 3, 5, 9, 17, 19, 30, 7, 17, 20, 25, 27, 30, 7, 12, 18, 20, 26, 27, 11, 13, 23, 25, 27, 30, 9, 17, 21, 24, 29, 30, 6, 15, 20, 21, 28, 29, 6, 10, 13, 16, 17, 29, 10, 13, 22, 23, 27, 29, 10, 12, 16, 24, 25, 28, 7, 9, 10, 11, 13, 30, 5, 7, 8, 14, 26, 28, 7, 10, 17, 18, 19, 25, 2, 12, 15, 20, 25, 30, 4, 10, 11, 12, 16, 18, 3, 7, 10, 15, 16, 20, 7, 16, 18, 20, 24, 25, 6, 11, 18, 20, 23, 25, 3, 18, 24, 27, 28, 29, 5, 10, 12, 17, 22, 27, 4, 7, 18, 19, 27, 28, 12, 16, 23, 26, 27, 28, 2, 4, 9, 15, 18, 22, 10, 17, 18, 21, 22, 27, 8, 14, 20, 21, 24, 27, 2, 7, 10, 12, 17, 22, 5, 13, 14, 21, 25, 26, 11, 12, 15, 17, 20, 28, 3, 23, 24, 25, 26, 27, 5, 6, 10, 12, 14, 20, 5, 6, 10, 18, 24, 29, 5, 12, 17, 18, 28, 30, 4, 9, 20, 24, 25, 29, 2, 12, 14, 19, 21, 30, 1, 5, 10, 25, 29, 30, 5, 6, 7, 19, 22, 25, 1, 2, 7, 11, 13, 26, 9, 15, 16, 19, 26, 30, 1, 7, 14, 18, 20, 26, 13, 14, 15, 17, 28, 30, 8, 11, 20, 24, 25, 28, 1, 2, 9, 21, 25, 28, 7, 9, 19, 21, 27, 28, 8, 13, 14, 19, 23, 27, 4, 5, 13, 14, 20, 21, 11, 14, 18, 19, 20, 22, 12, 16, 17, 23, 27, 29, 4, 14, 16, 24, 25, 29, 10, 11, 13, 24, 26, 27, 6, 17, 18, 24, 25, 29, 3, 4, 7, 13, 18, 24, 3, 4, 7, 15, 16, 17, 2, 6, 16, 17, 24, 25, 3, 16, 17, 21, 25, 30, 3, 14, 16, 17, 24, 30, 8, 11, 12, 17, 24, 27, 9, 12, 16, 19, 23, 26, 6, 13, 23, 24, 29, 30, 7, 15, 18, 20, 28, 29, 20, 21, 22, 23, 27, 29, 2, 3, 13, 20, 24, 30, 4, 9, 12, 15, 16, 29, 1, 9, 11, 19, 26, 30, 3, 7, 12, 26, 28, 29, 4, 18, 19, 20, 25, 30, 2, 9, 22, 26, 27, 30, 6, 7, 15, 16, 23, 24, 10, 15, 16, 17, 25, 28, 6, 15, 16, 20, 22, 26, 1, 2, 8, 14, 19, 26, 3, 4, 7, 14, 26, 27, 3, 9, 14, 15, 21, 25, 3, 4, 12, 18, 19, 25, 2, 9, 20, 22, 26, 28, 7, 8, 9, 15, 18, 29, 11, 12, 18, 27, 29, 30, 9, 20, 21, 23, 28, 30, 10, 19, 20, 23, 28, 29, 6, 11, 16, 21, 22, 28, 8, 14, 17, 21, 22, 29, 2, 6, 13, 14, 15, 17, 5, 14, 16, 20, 22, 28, 7, 8, 16, 19, 23, 25, 5, 15, 16, 17, 20, 25, 8, 9, 14, 15, 16, 29, 3, 11, 15, 22, 25, 30, 1, 2, 8, 18, 20, 22, 6, 7, 12, 20, 25, 26, 1, 7, 9, 11, 17, 27, 4, 12, 14, 16, 18, 22, 3, 4, 6, 13, 18, 25, 1, 3, 6, 13, 16, 21, 12, 13, 19, 22, 26, 28, 8, 9, 13, 16, 23, 26, 1, 10, 14, 16, 17, 19, 4, 8, 10, 21, 22, 27, 12, 21, 23, 27, 28, 29, 2, 8, 9, 15, 20, 27, 2, 8, 12, 13, 17, 23, 12, 19, 20, 23, 28, 29];
rreq = [|2, 2, 2, 2, 2, 2, 5, 4, 4, 4, 4, 4, 2, 2, 2, 2, 2, 2, 3, 2, 2, 2, 1, 1, 5, 4, 4, 4, 3, 3, 1, 1, 1, 1, 1, 1, 5, 3, 3, 3, 1, 1, 4, 4, 3, 3, 1, 1, 4, 3, 3, 2, 1, 1, 3, 3, 3, 3, 3, 3, 5, 5, 5, 5, 5, 5, 5, 4, 3, 2, 2, 1, 3, 3, 3, 2, 1, 1, 4, 3, 3, 3, 2, 1, 3, 3, 3, 2, 1, 1, 3, 3, 3, 3, 3, 3, 4, 4, 4, 4, 4, 4, 4, 3, 3, 3, 2, 1, 3, 3, 3, 3, 3, 3, 2, 2, 2, 2, 2, 2, 3, 3, 3, 3, 3, 3, 3, 2, 2, 1, 1, 1, 5, 3, 3, 3, 1, 1, 5, 4, 4, 3, 3, 2, 3, 3, 3, 3, 3, 3, 3, 3, 3, 2, 1, 1, 3, 3, 3, 3, 3, 3, 4, 4, 4, 4, 4, 4, 4, 4, 4, 4, 4, 4, 4, 3, 2, 2, 1, 1, 4, 3, 3, 3, 3, 3, 1, 1, 1, 1, 1, 1, 4, 3, 3, 3, 2, 2, 3, 3, 3, 3, 3, 3, 4, 3, 3, 2, 1, 1, 3, 3, 2, 2, 1, 1, 2, 2, 2, 1, 1, 1, 4, 4, 4, 4, 3, 3, 3, 3, 3, 3, 2, 2, 4, 4, 4, 4, 4, 4, 2, 1, 1, 1, 1, 1, 4, 3, 3, 3, 3, 3, 4, 4, 4, 3, 3, 3, 4, 3, 3, 3, 2, 1, 4, 3, 3, 3, 2, 2, 4, 4, 4, 4, 4, 4, 4, 4, 4, 4, 4, 4, 4, 4, 4, 4, 4, 4, 3, 3, 3, 3, 3, 3, 4, 4, 3, 3, 2, 2, 1, 1, 1, 1, 1, 1, 1, 1, 1, 1, 1, 1, 5, 3, 3, 3, 1, 1, 4, 4, 4, 4, 4, 4, 3, 2, 2, 2, 1, 1, 3, 3, 3, 3, 3, 3, 5, 5, 5, 5, 5, 5, 5, 4, 4, 3, 3, 2, 3, 3, 3, 3, 2, 2, 3, 3, 3, 3, 3, 3, 4, 4, 4, 4, 4, 4, 2, 2, 2, 2, 2, 2, 5, 4, 4, 4, 4, 4, 5, 4, 3, 3, 3, 2, 3, 3, 3, 3, 2, 2, 3, 3, 2, 2, 1, 1, 1, 1, 1, 1, 1, 1, 2, 2, 2, 2, 1, 1, 5, 4, 4, 4, 4, 4, 1, 1, 1, 1, 1, 1, 4, 4, 4, 3, 3, 3, 1, 1, 1, 1, 1, 1, 4, 4, 4, 3, 3, 3, 4, 4, 4, 4, 4, 4, 3, 3, 3, 2, 2, 2, 4, 3, 3, 2, 2, 1, 4, 3, 2, 2, 2, 1, 5, 3, 3, 2, 1, 1, 3, 2, 2, 2, 2, 2, 4, 3, 3, 3, 2, 1, 5, 4, 4, 3, 2, 2, 4, 4, 4, 3, 3, 2, 4, 3, 3, 3, 2, 1, 3, 3, 3, 3, 3, 3, 4, 4, 4, 4, 4, 4, 2, 2, 2, 2, 1, 1, 3, 3, 3, 3, 2, 2, 2, 2, 2, 1, 1, 1, 2, 2, 2, 2, 2, 2, 3, 3, 2, 2, 2, 1, 2, 2, 2, 2, 1, 1, 4, 4, 4, 3, 2, 2, 1, 1, 1, 1, 1, 1, 5, 4, 3, 3, 3, 2, 3, 3, 3, 2, 2, 2, 5, 4, 3, 2, 1, 1, 5, 4, 4, 4, 4, 4, 5, 5, 5, 5, 5, 5, 3, 3, 3, 3, 3, 3, 1, 1, 1, 1, 1, 1
 |5, 4, 4, 4, 4, 4, 5, 4, 4, 3, 3, 2, 3, 3, 3, 2, 2, 2, 3, 3, 3, 3, 2, 2, 3, 3, 3, 2, 1, 1, 4, 3, 3, 3, 3, 3, 4, 4, 4, 4, 4, 4, 4, 3, 3, 2, 2, 1, 5, 4, 4, 4, 4, 4, 4, 4, 4, 4, 4, 4, 3, 3, 3, 2, 2, 1, 5, 5, 5, 5, 5, 5, 4, 4, 4, 4, 3, 3, 3, 3, 2, 2, 1, 1, 4, 3, 3, 3, 2, 2, 5, 4, 3, 3, 2, 1, 4, 4, 4, 3, 3, 3, 5, 3, 3, 2, 1, 1, 1, 1, 1, 1, 1, 1, 5, 4, 3, 3, 2, 2, 3, 3, 2, 2, 1, 1, 4, 3, 3, 3, 3, 3, 2, 2, 2, 2, 2, 2, 5, 4, 4, 4, 4, 4, 3, 2, 2, 1, 1, 1, 5, 4, 3, 3, 2, 2, 5, 5, 5, 5, 5, 5, 5, 4, 4, 3, 3, 3, 3, 3, 2, 2, 2, 1, 4, 4, 3, 3, 2, 2, 1, 1, 1, 1, 1, 1, 4, 4, 4, 4, 4, 4, 4, 4, 3, 3, 2, 2, 2, 2, 2, 2, 2, 2, 5, 4, 4, 3, 3, 3, 4, 4, 4, 4, 4, 4, 3, 3, 3, 3, 2, 2, 1, 1, 1, 1, 1, 1, 2, 2, 2, 1, 1, 1, 4, 3, 3, 3, 3, 3, 3, 3, 3, 2, 2, 2, 3, 3, 3, 3, 3, 3, 1, 1, 1, 1, 1, 1, 2, 1, 1, 1, 1, 1, 3, 2, 2, 1, 1, 1, 1, 1, 1, 1, 1, 1, 4, 4, 4, 4, 4, 4, 5, 4, 3, 3, 2, 2, 5, 3, 3, 3, 2, 1, 4, 3, 3, 2, 2, 2, 2, 1, 1, 1, 1, 1, 4, 4, 4, 4, 4, 4, 4, 3, 3, 3, 2, 2, 2, 2, 2, 1, 1, 1, 1, 1, 1, 1, 1, 1, 3, 3, 3, 3, 3, 3, 2, 1, 1, 1, 1, 1, 4, 4, 4, 3, 2, 2, 5, 4, 4, 3, 3, 3, 5, 4, 4, 4, 4, 4, 2, 2, 2, 2, 2, 2, 4, 3, 3, 2, 2, 1, 5, 4, 3, 3, 3, 2, 3, 3, 2, 2, 2, 1, 4, 3, 3, 2, 1, 1, 2, 2, 2, 2, 2, 2, 2, 1, 1, 1, 1, 1, 3, 3, 3, 3, 3, 3, 4, 4, 4, 4, 4, 4, 5, 4, 3, 3, 3, 2, 3, 3, 3, 3, 3, 3, 3, 2, 2, 2, 2, 2, 2, 2, 2, 2, 2, 2, 3, 3, 3, 3, 3, 3, 5, 5, 5, 5, 5, 5, 3, 2, 2, 1, 1, 1, 5, 4, 4, 4, 4, 4, 4, 4, 4, 4, 3, 3, 5, 4, 4, 3, 3, 3, 5, 4, 4, 3, 3, 2, 3, 3, 3, 3, 3, 3, 4, 4, 4, 3, 3, 2, 5, 4, 4, 4, 3, 3, 4, 4, 4, 3, 3, 3, 3, 2, 2, 2, 2, 2, 5, 4, 4, 4, 4, 4, 4, 4, 4, 4, 4, 4, 2, 2, 2, 1, 1, 1, 3, 3, 3, 3, 2, 2, 3, 3, 3, 2, 2, 2, 3, 3, 3, 2, 2, 1, 4, 4, 3, 3, 1, 1, 4, 3, 3, 2, 1, 1, 1, 1, 1, 1, 1, 1, 4, 4, 4, 4, 4, 4, 4, 3, 3, 3, 3, 3, 1, 1, 1, 1, 1, 1, 4, 4, 3, 3, 3, 2, 3, 3, 3, 3, 3, 3, 4, 3, 3, 2, 2, 1
 |4, 4, 4, 3, 3, 3, 4, 4, 4, 4, 4, 4, 3, 3, 3, 3, 2, 2, 2, 2, 2, 2, 2, 2, 3, 3, 3, 3, 3, 3, 3, 2, 2, 2, 2, 2, 5, 4, 4, 3, 3, 3, 3, 2, 2, 2, 2, 2, 4, 4, 4, 4, 4, 4, 4, 4, 4, 3, 3, 2, 1, 1, 1, 1, 1, 1, 5, 4, 3, 3, 2, 2, 3, 3, 2, 2, 1, 1, 4, 4, 4, 3, 2, 2, 4, 3, 2, 2, 1, 1, 2, 1, 1, 1, 1, 1, 4, 3, 2, 2, 2, 1, 4, 4, 4, 3, 3, 3, 4, 4, 4, 4, 4, 4, 5, 4, 4, 4, 4, 4, 4, 4, 4, 4, 4, 4, 4, 3, 3, 3, 2, 2, 4, 4, 4, 3, 3, 3, 4, 4, 4, 4, 4, 4, 1, 1, 1, 1, 1, 1, 3, 3, 3, 2, 2, 2, 2, 1, 1, 1, 1, 1, 4, 3, 3, 2, 1, 1, 3, 3, 2, 2, 2, 1, 5, 5, 5, 5, 5, 5, 1, 1, 1, 1, 1, 1, 4, 3, 3, 3, 3, 3, 4, 4, 4, 4, 4, 4, 2, 2, 2, 2, 2, 2, 3, 3, 3, 3, 3, 3, 4, 3, 3, 3, 3, 3, 5, 4, 4, 4, 4, 4, 3, 3, 3, 3, 2, 2, 4, 4, 3, 3, 3, 2, 5, 5, 5, 5, 5, 5, 3, 3, 3, 3, 3, 3, 4, 3, 3, 3, 1, 1, 4, 3, 3, 3, 3, 3, 5, 4, 3, 3, 2, 2, 4, 3, 3, 2, 2, 1, 4, 4, 4, 3, 3, 3, 1, 1, 1, 1, 1, 1, 4, 4, 4, 4, 4, 4, 5, 3, 3, 3, 1, 1, 5, 4, 4, 3, 3, 3, 5, 4, 4, 4, 4, 4, 3, 3, 3, 2, 2, 1, 4, 4, 4, 4, 3, 3, 4, 3, 3, 2, 1, 1, 4, 3, 2, 2, 2, 1, 5, 5, 5, 5, 5, 5, 5, 4, 4, 4, 3, 3, 4, 4, 3, 3, 2, 2, 3, 3, 3, 3, 3, 3, 3, 2, 2, 2, 1, 1, 5, 4, 4, 3, 3, 3, 5, 4, 4, 3, 3, 3, 4, 3, 3, 2, 2, 2, 2, 2, 2, 2, 2, 2, 4, 4, 4, 4, 4, 4, 2, 2, 2, 2, 2, 2, 3, 3, 3, 3, 3, 3, 1, 1, 1, 1, 1, 1, 4, 3, 3, 2, 2, 2, 1, 1, 1, 1, 1, 1, 2, 2, 2, 1, 1, 1, 3, 3, 3, 3, 3, 3, 4, 4, 4, 4, 4, 4, 4, 4, 3, 2, 2, 1, 2, 2, 2, 2, 2, 2, 2, 2, 2, 2, 2, 2, 5, 4, 4, 4, 3, 3, 1, 1, 1, 1, 1, 1, 3, 3, 2, 2, 1, 1, 5, 4, 4, 4, 4, 4, 5, 4, 4, 4, 4, 4, 3, 3, 2, 2, 2, 1, 5, 4, 4, 4, 4, 4, 4, 3, 3, 3, 3, 3, 5, 4, 4, 3, 3, 2, 4, 4, 4, 3, 3, 3, 4, 3, 3, 2, 1, 1, 3, 2, 2, 2, 2, 2, 4, 3, 3, 2, 1, 1, 3, 3, 3, 2, 2, 1, 5, 4, 4, 4, 4, 4, 2, 2, 2, 2, 2, 2, 4, 4, 4, 4, 4, 4, 4, 4, 4, 4, 4, 4, 4, 4, 4, 4, 4, 4, 2, 2, 2, 1, 1, 1, 3, 2, 2, 1, 1, 1, 5, 4, 4, 3, 3, 3, 3, 3, 3, 3, 3, 3, 5, 4, 4, 4, 3, 3
 |3, 2, 2, 2, 1, 1, 5, 4, 3, 3, 3, 2, 5, 4, 3, 3, 3, 2, 2, 2, 2, 2, 2, 2, 3, 2, 2, 2, 1, 1, 3, 3, 3, 3, 2, 2, 5, 4, 4, 4, 4, 4, 2, 2, 2, 2, 2, 2, 1, 1, 1, 1, 1, 1, 5, 4, 4, 4, 3, 3, 5, 3, 3, 2, 1, 1, 4, 3, 3, 3, 2, 2, 3, 2, 2, 2, 2, 2, 4, 3, 3, 3, 3, 3, 4, 3, 3, 3, 3, 3, 3, 3, 3, 3, 2, 2, 3, 3, 3, 3, 3, 3, 3, 3, 3, 3, 3, 3, 3, 3, 3, 3, 3, 3, 3, 2, 2, 1, 1, 1, 3, 3, 3, 3, 3, 3, 3, 3, 3, 3, 3, 3, 3, 3, 3, 2, 2, 2, 4, 3, 3, 3, 3, 3, 1, 1, 1, 1, 1, 1, 2, 2, 2, 2, 2, 2, 4, 3, 3, 3, 3, 3, 5, 5, 5, 5, 5, 5, 5, 3, 3, 3, 2, 1, 3, 3, 3, 2, 2, 1, 4, 3, 3, 3, 2, 1, 2, 2, 2, 2, 2, 2, 3, 3, 3, 3, 3, 3, 3, 3, 3, 3, 3, 3, 1, 1, 1, 1, 1, 1, 5, 4, 4, 3, 3, 2, 1, 1, 1, 1, 1, 1, 5, 5, 5, 5, 5, 5, 4, 4, 4, 3, 2, 2, 1, 1, 1, 1, 1, 1, 4, 4, 4, 4, 4, 4, 4, 4, 4, 4, 4, 4, 2, 1, 1, 1, 1, 1, 2, 2, 2, 2, 2, 2, 3, 3, 3, 3, 3, 3, 3, 3, 3, 2, 2, 2, 2, 1, 1, 1, 1, 1, 3, 3, 3, 3, 3, 3, 3, 2, 2, 2, 1, 1, 5, 3, 3, 3, 2, 1, 2, 2, 2, 2, 2, 2, 4, 3, 3, 3, 3, 3, 2, 2, 2, 1, 1, 1, 3, 3, 2, 2, 2, 1, 3, 3, 3, 3, 2, 2, 1, 1, 1, 1, 1, 1, 4, 3, 2, 2, 1, 1, 2, 2, 2, 1, 1, 1, 1, 1, 1, 1, 1, 1, 4, 4, 4, 4, 3, 3, 4, 3, 3, 2, 1, 1, 4, 3, 3, 2, 2, 2, 4, 4, 4, 4, 4, 4, 4, 4, 3, 3, 1, 1, 2, 2, 2, 2, 1, 1, 2, 2, 2, 1, 1, 1, 4, 4, 4, 4, 3, 3, 5, 4, 3, 2, 1, 1, 5, 5, 5, 5, 5, 5, 5, 4, 4, 4, 3, 3, 4, 4, 4, 3, 3, 3, 2, 2, 2, 2, 2, 2, 5, 4, 4, 4, 3, 3, 4, 4, 4, 3, 2, 2, 4, 4, 4, 4, 4, 4, 4, 4, 4, 4, 4, 4, 4, 4, 4, 4, 3, 3, 5, 3, 3, 2, 2, 1, 2, 1, 1, 1, 1, 1, 5, 4, 4, 4, 4, 4, 2, 2, 2, 1, 1, 1, 2, 2, 2, 2, 2, 2, 3, 2, 2, 2, 2, 2, 4, 4, 4, 4, 4, 4, 4, 4, 4, 4, 4, 4, 4, 4, 4, 4, 4, 4, 3, 2, 2, 2, 2, 2, 4, 4, 4, 3, 2, 2, 1, 1, 1, 1, 1, 1, 3, 2, 2, 2, 1, 1, 3, 3, 3, 2, 2, 2, 2, 1, 1, 1, 1, 1, 4, 3, 3, 2, 2, 2, 1, 1, 1, 1, 1, 1, 4, 4, 4, 3, 3, 2, 5, 4, 4, 3, 2, 2, 3, 3, 3, 3, 3, 3, 3, 3, 3, 3, 3, 3, 5, 5, 5, 5, 5, 5, 5, 4, 3, 2, 2, 1
 |21, 21, 21, 21, 21, 21, 21, 20, 20, 20, 20, 20, 23, 17, 14, 11, 8, 3, 23, 20, 16, 12, 10, 7, 28, 28, 28, 28, 28, 28, 15, 12, 9, 9, 7, 3, 20, 18, 17, 15, 13, 12, 29, 25, 20, 14, 13, 10, 17, 17, 17, 17, 16, 16, 27, 22, 21, 15, 14, 9, 25, 21, 18, 18, 10, 7, 18, 14, 13, 8, 8, 5, 24, 20, 16, 11, 4, 4, 26, 23, 19, 19, 14, 10, 7, 6, 4, 4, 2, 1, 22, 17, 16, 10, 8, 3, 20, 18, 15, 10, 7, 7, 25, 23, 21, 13, 12, 6, 16, 14, 13, 9, 8, 7, 9, 8, 6, 6, 4, 2, 15, 15, 14, 14, 13, 13, 16, 16, 16, 16, 16, 16, 8, 7, 6, 3, 2, 1, 9, 9, 8, 8, 8, 7, 9, 9, 9, 8, 8, 7, 21, 17, 11, 7, 7, 4, 30, 27, 26, 22, 20, 19, 28, 23, 21, 21, 17, 14, 23, 22, 18, 18, 14, 13, 24, 22, 19, 15, 8, 7, 15, 14, 11, 10, 9, 8, 8, 8, 8, 8, 8, 8, 28, 25, 22, 18, 15, 15, 10, 9, 9, 7, 6, 6, 22, 19, 19, 15, 13, 10, 22, 21, 18, 15, 13, 12, 21, 18, 15, 13, 11, 8, 5, 5, 4, 4, 3, 2, 16, 14, 11, 11, 9, 5, 12, 9, 8, 5, 3, 2, 24, 24, 20, 19, 18, 15, 26, 26, 24, 24, 23, 22, 14, 12, 9, 8, 6, 5, 20, 19, 16, 15, 14, 11, 26, 24, 23, 22, 19, 19, 14, 13, 13, 13, 12, 12, 5, 4, 4, 4, 4, 4, 21, 16, 15, 8, 7, 3, 25, 19, 15, 14, 7, 5, 25, 20, 19, 12, 12, 5, 23, 21, 20, 16, 16, 14, 10, 8, 8, 5, 5, 4, 14, 13, 13, 12, 12, 12, 13, 12, 10, 10, 8, 8, 26, 21, 20, 17, 12, 11, 8, 5, 5, 4, 2, 1, 14, 12, 11, 11, 10, 9, 15, 12, 12, 8, 6, 5, 5, 5, 5, 4, 3, 3, 28, 27, 26, 26, 25, 24, 8, 7, 7, 7, 7, 7, 16, 15, 15, 14, 12, 11, 24, 20, 20, 14, 9, 6, 12, 12, 9, 7, 4, 4, 22, 22, 22, 22, 22, 22, 29, 28, 26, 24, 23, 22, 23, 18, 17, 12, 10, 5, 29, 26, 23, 22, 19, 16, 10, 10, 10, 9, 9, 8, 5, 4, 4, 4, 4, 4, 29, 29, 28, 27, 27, 26, 21, 18, 18, 17, 15, 13, 13, 12, 8, 8, 3, 2, 20, 17, 13, 11, 7, 6, 29, 27, 27, 26, 23, 23, 23, 20, 19, 16, 13, 12, 22, 21, 21, 20, 20, 19, 16, 16, 16, 16, 16, 16, 23, 20, 18, 17, 13, 13, 16, 12, 11, 7, 6, 3, 27, 23, 20, 11, 10, 3, 28, 27, 24, 22, 22, 19, 7, 6, 5, 5, 4, 3, 27, 27, 26, 26, 24, 24, 25, 24, 24, 22, 21, 18, 8, 8, 7, 7, 5, 5, 9, 9, 9, 9, 9, 9, 1, 1, 1, 1, 1, 1, 13, 12, 12, 12, 11, 10, 21, 20, 18, 17, 14, 14, 24, 22, 17, 14, 13, 11, 19, 16, 15, 10, 5, 3, 30, 28, 28, 27, 25, 24, 21, 18, 17, 15, 13, 13, 12, 11, 10, 9, 7, 7, 17, 17, 17, 17, 17, 17, 15, 13, 11, 10, 6, 3, 10, 10, 6, 5, 3, 2, 17, 17, 17, 17, 17, 17, 25, 24, 23, 20, 18, 18
 |10, 10, 9, 8, 7, 5, 28, 27, 24, 20, 19, 16, 28, 24, 16, 14, 9, 7, 20, 16, 16, 12, 10, 6, 25, 19, 18, 12, 9, 6, 18, 17, 17, 16, 16, 16, 20, 20, 19, 19, 18, 18, 21, 17, 15, 15, 13, 11, 20, 19, 16, 14, 14, 12, 29, 29, 28, 27, 26, 24, 24, 23, 23, 23, 21, 21, 15, 11, 8, 7, 6, 1, 28, 28, 28, 28, 28, 27, 28, 23, 20, 18, 15, 13, 20, 15, 11, 9, 7, 4, 17, 16, 16, 15, 15, 15, 17, 15, 14, 12, 10, 10, 23, 21, 17, 12, 8, 6, 22, 22, 22, 21, 21, 20, 30, 29, 28, 27, 27, 26, 17, 14, 13, 9, 9, 6, 20, 18, 17, 16, 13, 12, 17, 17, 14, 14, 11, 11, 24, 22, 18, 15, 14, 9, 16, 14, 13, 11, 9, 8, 18, 18, 14, 13, 9, 8, 22, 19, 19, 18, 17, 15, 22, 20, 20, 17, 16, 16, 26, 25, 16, 10, 10, 3, 28, 23, 22, 16, 13, 13, 25, 23, 22, 20, 17, 15, 12, 8, 7, 6, 3, 2, 21, 17, 16, 14, 14, 12, 13, 10, 9, 9, 7, 5, 23, 20, 17, 13, 8, 7, 24, 23, 21, 21, 19, 18, 30, 28, 26, 25, 25, 24, 29, 26, 23, 18, 15, 10, 18, 13, 11, 10, 6, 2, 17, 15, 14, 13, 12, 12, 5, 5, 5, 5, 5, 5, 11, 9, 9, 8, 7, 6, 17, 15, 14, 13, 10, 9, 18, 15, 14, 11, 10, 7, 23, 21, 17, 16, 10, 9, 14, 13, 10, 9, 6, 5, 26, 25, 24, 23, 22, 21, 23, 23, 23, 22, 22, 22, 22, 20, 20, 18, 14, 14, 11, 9, 9, 6, 6, 4, 28, 26, 26, 22, 21, 20, 25, 24, 23, 24, 23, 24, 14, 12, 11, 10, 10, 9, 30, 26, 25, 24, 21, 20, 26, 26, 24, 24, 23, 21, 24, 23, 21, 20, 19, 19, 24, 23, 21, 19, 19, 16, 27, 25, 22, 19, 18, 17, 27, 23, 17, 13, 8, 3, 13, 12, 10, 8, 5, 4, 26, 23, 22, 20, 17, 16, 25, 22, 19, 16, 8, 6, 24, 22, 19, 19, 15, 12, 19, 17, 17, 16, 16, 15, 28, 26, 23, 19, 18, 15, 17, 14, 12, 9, 7, 5, 13, 13, 9, 8, 5, 2, 12, 12, 11, 10, 9, 8, 25, 24, 22, 18, 13, 9, 24, 22, 15, 12, 7, 3, 20, 19, 18, 16, 15, 15, 29, 27, 26, 27, 26, 25, 20, 20, 20, 19, 19, 19, 13, 12, 10, 9, 9, 8, 27, 24, 23, 21, 17, 16, 28, 26, 25, 23, 21, 20, 22, 20, 17, 16, 15, 12, 17, 14, 11, 11, 7, 4, 9, 8, 7, 5, 4, 2, 23, 21, 21, 21, 19, 19, 17, 15, 11, 10, 8, 7, 14, 13, 11, 11, 9, 8, 6, 5, 5, 4, 5, 5, 21, 20, 18, 17, 15, 14, 21, 17, 13, 9, 9, 3, 7, 7, 7, 6, 5, 4, 25, 23, 21, 19, 16, 15, 21, 18, 16, 12, 10, 5, 25, 22, 16, 15, 10, 8, 27, 26, 25, 25, 24, 24, 27, 21, 17, 16, 11, 6, 27, 24, 17, 16, 9, 3, 23, 23, 21, 21, 20, 19, 10, 8, 8, 6, 5, 5, 24, 23, 18, 18, 15, 12, 25, 20, 16, 13, 7, 3, 9, 9, 8, 6, 6, 5, 9, 8, 7, 7, 6, 6, 25, 23, 19, 14, 13, 8, 29, 24, 15, 15, 9, 5|];